<number of tasks>
50

<cycle time>
1000

<order strength>
0.595


<task times>
1 232
2 529
3 264
4 315
5 208
6 257
7 126
8 303
9 145
10 316
11 513
12 94
13 340
14 78
15 26
16 55
17 147
18 158
19 349
20 277
21 37
22 434
23 170
24 302
25 473
26 532
27 233
28 281
29 63
30 483
31 201
32 313
33 245
34 192
35 496
36 236
37 40
38 570
39 57
40 515
41 203
42 254
43 270
44 119
45 96
46 455
47 57
48 154
49 185
50 23

<precedence relations>
1,28
2,3
2,4
2,5
2,6
2,7
2,8
3,9
4,9
5,9
6,9
7,9
8,10
8,11
8,12
9,13
9,14
9,15
9,16
9,17
10,39
11,20
11,23
11,25
11,26
11,29
11,30
12,17
12,18
12,26
13,20
13,22
14,20
14,24
15,19
15,23
15,24
16,21
16,31
16,40
17,23
17,36
18,19
18,25
18,31
18,37
19,28
20,28
21,39
22,24
22,25
22,26
22,27
23,31
23,47
24,28
25,39
26,31
26,50
27,29
27,30
28,32
28,33
28,34
28,35
28,36
28,38
29,39
30,36
30,37
30,40
32,39
34,47
34,48
34,49
35,40
35,41
35,49
36,39
37,47
37,48
38,40
38,41
39,42
39,43
39,44
39,45
39,46
39,47
41,47
41,48
42,50
43,48
44,49
44,50
45,50
46,49
46,50

<end>
